p cnf 532
-14 -144
-15 -147
-16 -150
-17 -153
-18 -156
-19 -159
-20 -162
-21 -165
-22 -168
-23 -171
-24 -174
-25 -177
-26 -180
-27 -182
-28 -184
-29 -186
-30 -188
-31 -190
-32 -192
-33 -194
-34 -196
-35 -198
-36 -200
-37 -202
-38 -204
-39 -206
-40 207
-41 -21
-41 26
21 -26 41
-42 21
-42 -26
-21 26 42
-43 -41
-43 -42
41 42 43
-44 -24
-44 -43
24 43 44
-45 24
-45 43
-24 -43 45
-46 -44
-46 -45
44 45 46
-47 -25
-47 -46
25 46 47
-48 25
-48 46
-25 -46 48
-49 -47
-49 -48
47 48 49
-50 -1
-50 -2
1 2 50
-51 -3
-51 -4
3 4 51
-52 -5
-52 -6
5 6 52
-53 -7
-53 -8
7 8 53
-54 -9
-54 -10
9 10 54
-55 -11
-55 -12
11 12 55
-56 50
-56 51
-50 -51 56
-57 52
-57 53
-52 -53 57
-58 54
-58 55
-54 -55 58
-59 56
-59 57
-56 -57 59
-60 -13
-60 58
13 -58 60
-61 59
-61 60
-59 -60 61
-62 -27
-62 -28
27 28 62
-63 -29
-63 -30
29 30 63
-64 -31
-64 -32
31 32 64
-65 -33
-65 -34
33 34 65
-66 -35
-66 -36
35 36 66
-67 -37
-67 -38
37 38 67
-68 62
-68 63
-62 -63 68
-69 64
-69 65
-64 -65 69
-70 66
-70 67
-66 -67 70
-71 68
-71 69
-68 -69 71
-72 -39
-72 70
39 -70 72
-73 71
-73 72
-71 -72 73
-74 27
-74 -49
-27 49 74
-75 -27
-75 49
27 -49 75
-76 -74
-76 -75
74 75 76
-77 14
-77 28
-14 -28 77
-78 -14
-78 -28
14 28 78
-79 -77
-79 -78
77 78 79
-80 15
-80 29
-15 -29 80
-81 -15
-81 -29
15 29 81
-82 -80
-82 -81
80 81 82
-83 16
-83 30
-16 -30 83
-84 -16
-84 -30
16 30 84
-85 -83
-85 -84
83 84 85
-86 17
-86 31
-17 -31 86
-87 -17
-87 -31
17 31 87
-88 -86
-88 -87
86 87 88
-89 18
-89 32
-18 -32 89
-90 -18
-90 -32
18 32 90
-91 -89
-91 -90
89 90 91
-92 19
-92 33
-19 -33 92
-93 -19
-93 -33
19 33 93
-94 -92
-94 -93
92 93 94
-95 20
-95 34
-20 -34 95
-96 -20
-96 -34
20 34 96
-97 -95
-97 -96
95 96 97
-98 21
-98 35
-21 -35 98
-99 -21
-99 -35
21 35 99
-100 -98
-100 -99
98 99 100
-101 22
-101 36
-22 -36 101
-102 -22
-102 -36
22 36 102
-103 -101
-103 -102
101 102 103
-104 23
-104 37
-23 -37 104
-105 -23
-105 -37
23 37 105
-106 -104
-106 -105
104 105 106
-107 24
-107 38
-24 -38 107
-108 -24
-108 -38
24 38 108
-109 -107
-109 -108
107 108 109
-110 25
-110 39
-25 -39 110
-111 -25
-111 -39
25 39 111
-112 -110
-112 -111
110 111 112
-113 -76
-113 -79
76 79 113
-114 -82
-114 -85
82 85 114
-115 -88
-115 -91
88 91 115
-116 -94
-116 -97
94 97 116
-117 -100
-117 -103
100 103 117
-118 -106
-118 -109
106 109 118
-119 113
-119 114
-113 -114 119
-120 115
-120 116
-115 -116 120
-121 117
-121 118
-117 -118 121
-122 119
-122 120
-119 -120 122
-123 -112
-123 121
112 -121 123
-124 122
-124 123
-122 -123 124
-125 -73
-125 124
73 -124 125
-126 40
-126 125
-40 -125 126
-127 61
-127 126
-61 -126 127
-128 -14
-128 49
14 -49 128
-129 -15
-129 -16
15 16 129
-130 -17
-130 -18
17 18 130
-131 -19
-131 -20
19 20 131
-132 -21
-132 -22
21 22 132
-133 -23
-133 -24
23 24 133
-134 128
-134 129
-128 -129 134
-135 130
-135 131
-130 -131 135
-136 132
-136 133
-132 -133 136
-137 134
-137 135
-134 -135 137
-138 -25
-138 136
25 -136 138
-139 137
-139 138
-137 -138 139
-140 -73
-140 139
73 -139 140
-141 61
-141 -125
-61 125 141
-142 1
-142 -61
-1 61 142
-143 -49
-143 61
49 -61 143
-144 -142
-144 -143
142 143 144
-145 2
-145 -61
-2 61 145
-146 14
-146 61
-14 -61 146
-147 -145
-147 -146
145 146 147
-148 3
-148 -61
-3 61 148
-149 15
-149 61
-15 -61 149
-150 -148
-150 -149
148 149 150
-151 4
-151 -61
-4 61 151
-152 16
-152 61
-16 -61 152
-153 -151
-153 -152
151 152 153
-154 5
-154 -61
-5 61 154
-155 17
-155 61
-17 -61 155
-156 -154
-156 -155
154 155 156
-157 6
-157 -61
-6 61 157
-158 18
-158 61
-18 -61 158
-159 -157
-159 -158
157 158 159
-160 7
-160 -61
-7 61 160
-161 19
-161 61
-19 -61 161
-162 -160
-162 -161
160 161 162
-163 8
-163 -61
-8 61 163
-164 20
-164 61
-20 -61 164
-165 -163
-165 -164
163 164 165
-166 9
-166 -61
-9 61 166
-167 21
-167 61
-21 -61 167
-168 -166
-168 -167
166 167 168
-169 10
-169 -61
-10 61 169
-170 22
-170 61
-22 -61 170
-171 -169
-171 -170
169 170 171
-172 11
-172 -61
-11 61 172
-173 23
-173 61
-23 -61 173
-174 -172
-174 -173
172 173 174
-175 12
-175 -61
-12 61 175
-176 24
-176 61
-24 -61 176
-177 -175
-177 -176
175 176 177
-178 13
-178 -61
-13 61 178
-179 25
-179 61
-25 -61 179
-180 -178
-180 -179
178 179 180
-181 27
-181 61
-27 -61 181
-182 -142
-182 -181
142 181 182
-183 28
-183 61
-28 -61 183
-184 -145
-184 -183
145 183 184
-185 29
-185 61
-29 -61 185
-186 -148
-186 -185
148 185 186
-187 30
-187 61
-30 -61 187
-188 -151
-188 -187
151 187 188
-189 31
-189 61
-31 -61 189
-190 -154
-190 -189
154 189 190
-191 32
-191 61
-32 -61 191
-192 -157
-192 -191
157 191 192
-193 33
-193 61
-33 -61 193
-194 -160
-194 -193
160 193 194
-195 34
-195 61
-34 -61 195
-196 -163
-196 -195
163 195 196
-197 35
-197 61
-35 -61 197
-198 -166
-198 -197
166 197 198
-199 36
-199 61
-36 -61 199
-200 -169
-200 -199
169 199 200
-201 37
-201 61
-37 -61 201
-202 -172
-202 -201
172 201 202
-203 38
-203 61
-38 -61 203
-204 -175
-204 -203
175 203 204
-205 39
-205 61
-39 -61 205
-206 -178
-206 -205
178 205 206
-207 -40
-207 141
40 -141 207
-208 -127
-208 -140
127 140 208
-208
